
Gurobi 9.0.2 (win64) logging started Sun Dec 27 07:20:47 2020

Changed value of parameter logfile to result\SunCable-20201227T0415\scenario_2030_p30_cab0.log
   Prev:   Default: 
Gurobi Optimizer version 9.0.2 build v9.0.2rc0 (win64)
Optimize a model with 1243974 rows, 762167 columns and 3491689 nonzeros
Model fingerprint: 0xf59b691a
Coefficient statistics:
  Matrix range     [1e-07, 3e+05]
  Objective range  [1e+00, 1e+00]
  Bounds range     [0e+00, 0e+00]
  RHS range        [2e-05, 3e+08]
Warning: Model contains large matrix coefficient range
         Consider reformulating model or setting NumericFocus parameter
         to avoid numerical issues.

Concurrent LP optimizer: primal simplex, dual simplex, and barrier
Showing barrier log only...

Presolve removed 1077757 rows and 595936 columns
Presolve time: 2.64s
Presolved: 166217 rows, 280097 columns, 634800 nonzeros

Ordering time: 0.07s

Barrier statistics:
 Dense cols : 4
 AA' NZ     : 5.743e+05
 Factor NZ  : 2.973e+06 (roughly 200 MBytes of memory)
 Factor Ops : 6.580e+07 (less than 1 second per iteration)
 Threads    : 30

                  Objective                Residual
Iter       Primal          Dual         Primal    Dual     Compl     Time
   0  -2.03239436e+16 -1.07293884e+15  5.93e+06 2.66e+04  2.44e+12     3s
   1  -3.48406799e+15 -1.08556501e+15  1.01e+06 4.50e+06  5.67e+11     3s
   2  -1.22123361e+15 -1.02025460e+15  3.55e+05 1.27e+06  1.92e+11     4s
   3  -2.69561919e+14 -8.45436562e+14  7.90e+04 1.78e+05  4.08e+10     4s
   4  -8.26291653e+13 -5.48672693e+14  2.30e+04 5.37e+04  1.24e+10     4s
   5  -2.84120741e+13 -3.89268194e+14  7.50e+03 2.82e+04  4.86e+09     4s
   6  -1.09477187e+13 -2.72357815e+14  3.05e+03 1.41e+04  2.27e+09     5s
   7  -3.51591821e+12 -1.24125505e+14  1.03e+03 2.03e+03  6.03e+08     5s
   8   1.27230424e+11 -3.55943355e+13  2.20e+01 1.33e+02  7.38e+07     5s
   9   1.78157820e+11 -1.11370908e+12  5.51e-02 3.40e+00  2.48e+06     5s
  10   9.29274374e+10 -4.65153087e+11  1.71e-02 1.17e+00  1.04e+06     6s
  11   3.82289096e+10 -1.87056773e+11  4.12e-03 2.87e-01  4.10e+05     6s
  12   1.51379624e+10 -5.17216973e+10  1.14e-03 2.24e-08  1.20e+05     6s
  13   1.02970180e+10 -1.62082844e+10  5.98e-04 1.49e-08  4.75e+04     6s
  14   7.17825280e+09 -5.49336166e+09  2.26e-04 1.49e-08  2.27e+04     7s
  15   6.22723001e+09  5.84740313e+08  1.34e-04 1.12e-08  1.01e+04     7s
  16   5.65515225e+09  2.57647367e+09  8.21e-05 5.59e-09  5.50e+03     7s
  17   5.21444554e+09  3.42045451e+09  4.18e-05 5.59e-09  3.20e+03     7s
  18   5.00246653e+09  3.96606671e+09  2.15e-05 3.73e-09  1.85e+03     8s
  19   4.93656370e+09  4.22787778e+09  1.53e-05 2.79e-09  1.27e+03     8s
  20   4.91142900e+09  4.42840177e+09  1.33e-05 2.79e-09  8.63e+02     8s
  21   4.88907906e+09  4.52513865e+09  1.09e-05 2.79e-09  6.50e+02     8s
  22   4.85747810e+09  4.60415818e+09  7.69e-06 1.86e-09  4.52e+02     9s
  23   4.83266993e+09  4.64386819e+09  5.08e-06 1.86e-09  3.37e+02     9s
  24   4.81900077e+09  4.68438246e+09  3.57e-06 1.86e-09  2.40e+02     9s
  25   4.80636445e+09  4.70289965e+09  2.07e-06 1.86e-09  1.85e+02    10s
  26   4.80104718e+09  4.73813690e+09  1.46e-06 1.86e-09  1.12e+02    10s
  27   4.79609372e+09  4.74803058e+09  8.65e-07 1.86e-09  8.58e+01    10s
  28   4.79409327e+09  4.76565726e+09  6.32e-07 1.86e-09  5.08e+01    11s
  29   4.79191304e+09  4.77212129e+09  3.75e-07 1.86e-09  3.53e+01    11s
  30   4.79020550e+09  4.77688127e+09  1.84e-07 1.86e-09  2.38e+01    11s
  31   4.78953594e+09  4.77976844e+09  1.11e-07 1.86e-09  1.74e+01    11s
  32   4.78899583e+09  4.78210253e+09  5.19e-08 1.86e-09  1.23e+01    12s
  33   4.78872123e+09  4.78427520e+09  2.59e-08 1.86e-09  7.94e+00    12s
  34   4.78864789e+09  4.78584895e+09  2.17e-08 1.86e-09  5.00e+00    12s
  35   4.78861819e+09  4.78608114e+09  1.82e-08 1.86e-09  4.53e+00    12s
  36   4.78854866e+09  4.78693876e+09  4.42e-08 1.86e-09  2.87e+00    12s
  37   4.78852558e+09  4.78778594e+09  4.43e-08 1.86e-09  1.32e+00    13s
  38   4.78850292e+09  4.78792859e+09  1.10e-07 1.86e-09  1.03e+00    13s
  39   4.78848611e+09  4.78816921e+09  6.50e-08 1.86e-09  5.66e-01    13s
  40   4.78846624e+09  4.78830335e+09  3.07e-07 1.86e-09  2.91e-01    13s
  41   4.78846050e+09  4.78842420e+09  2.60e-07 1.86e-09  6.48e-02    14s
  42   4.78845799e+09  4.78845504e+09  7.88e-08 2.79e-09  5.27e-03    14s
  43   4.78845760e+09  4.78845760e+09  1.54e-08 2.79e-09  1.47e-06    14s
  44   4.78845760e+09  4.78845760e+09  6.98e-09 3.73e-09  3.21e-12    14s

Barrier solved model in 44 iterations and 14.36 seconds
Optimal objective 4.78845760e+09

Crossover log...

   19254 DPushes remaining with DInf 0.0000000e+00                15s
       0 DPushes remaining with DInf 0.0000000e+00                15s
Warning: Markowitz tolerance tightened to 0.25

   79163 PPushes remaining with PInf 0.0000000e+00                15s
       0 PPushes remaining with PInf 0.0000000e+00                19s

  Push phase complete: Pinf 0.0000000e+00, Dinf 1.2778002e-09     19s

Iteration    Objective       Primal Inf.    Dual Inf.      Time
   80775    4.7884576e+09   0.000000e+00   0.000000e+00     21s

Solved with barrier
Solved in 80775 iterations and 20.96 seconds
Optimal objective  4.788457599e+09
Warning: unscaled primal violation = 0.000881727 and residual = 0.000881727
